
%FILE DATA:	Soccer Computational Problem for MiniZinc Models	%
%AUTHOR:	Jack Wall	%
%CONTACT:  	116397063@umail.ucc.ie			%
%LAST UPDATE:	03/19/2020, 15:21:49						%
%DESCRIPTION: 	238 games played with 34 games left				%


n=17; %number of teams

%Games to play
games=[|4,14|10,16|6,11|10,1|8,10|10,15|15,4|16,1|2,11|3,10|7,8|14,15|8,16|15,8|13,16|7,12|4,1|13,12|9,6|16,8|3,15|1,10|12,14|12,13|15,17|15,2|2,7|9,14|13,3|9,7|7,2|2,16|6,10|14,3|];

%Initial points
iPoints=[37,30,31,41,34,45,43,46,32,27,38,41,39,33,36,33,43];

%POSITION CONSTRAINTS
% [|teamID, operator, position|...]
% operators index:
%  1 for =  operator
%  2 for >  operator
%  3 for >= operator
%  4 for <  operator
%  5 for <= operator
positionConstraints=[|8,5,1|7,3,2|6,1,3|];